benchmarks_vrp/CMT5/min_c/CMT5_15.vrp
NAME: CMT5_15
TYPE: CVRP
COMMENT: 1291.29 - Cluster Nr.15
DIMENSION: 16
CAPACITY: 200
EDGE_WEIGHT_TYPE: EUC_2D
NODE_COORD_TYPE: TWOD_COORDS
NODE_COORD_SECTION: 
11 52 26
12 65 20
5 55 20
6 57 29
3 52 33
4 35 35
10 55 20
14 43 26
15 62 24
7 63 23
2 45 30
9 48 21
8 50 30
13 51 21
1 58 27
16 48 28
DEPOT_SECTION: 
4
-1
DEMAND_SECTION: 
11 13
10 19
7 2
5 21
6 18
8 21
9 20
14 22
1 19
13 5
3 11
2 17
15 8
12 6
16 18
4 0
EOF
