benchmarks_vrp/CMT5/min_c/CMT5_15.tour
NAME: CMT5_15 solution
TYPE: TOUR
TOUR_SECTION:
4 14 -1
4 2 8 3 6 1 15 7 12 10 5 13 9 11 16 -1
-1
EOF